NAME : sim49.77005.tour
COMMENT : Length = 77005
COMMENT : Found by LKH [Keld Helsgaun] Fri Sep 14 16:45:45 2018
TYPE : TOUR
DIMENSION : 49
TOUR_SECTION
1
5
16
21
49
15
14
44
3
11
42
29
23
38
36
8
22
46
26
31
18
24
47
19
25
32
4
45
7
9
43
6
37
10
17
2
20
40
48
12
41
13
30
33
39
27
34
28
35
-1
EOF
